data/CVRPLIB/Vrp-Set-XML100/instances/XML100_1215_21.vrp
NAME : XML100_1215_21
COMMENT : Generated by Queiroga, Sadykov, Uchoa, and Vidal (2021)
TYPE : CVRP
DIMENSION : 101
EDGE_WEIGHT_TYPE : EUC_2D
CAPACITY : 23
NODE_COORD_SECTION
1    240  992 
2    263  608 
3    242  552 
4    693  52  
5    228  625 
6    750  457 
7    577  683 
8    674  763 
9    407  551 
10   828  337 
11   618  25  
12   216  611 
13   733  376 
14   189  618 
15   486  739 
16   108  228 
17   781  368 
18   805  668 
19   125  283 
20   485  33  
21   112  174 
22   302  520 
23   757  472 
24   748  738 
25   939  517 
26   537  512 
27   738  418 
28   74   64  
29   522  733 
30   106  118 
31   90   457 
32   826  564 
33   782  338 
34   518  671 
35   449  307 
36   447  650 
37   465  654 
38   485  195 
39   982  515 
40   774  452 
41   720  476 
42   915  450 
43   763  456 
44   119  333 
45   647  770 
46   532  639 
47   866  574 
48   716  255 
49   148  92  
50   677  680 
51   809  530 
52   701  477 
53   615  26  
54   216  604 
55   708  530 
56   148  733 
57   403  672 
58   701  45  
59   494  617 
60   686  482 
61   681  505 
62   635  54  
63   142  144 
64   742  262 
65   234  211 
66   181  100 
67   100  336 
68   537  730 
69   126  281 
70   240  623 
71   707  400 
72   741  407 
73   251  636 
74   405  152 
75   69   176 
76   157  768 
77   964  503 
78   233  651 
79   617  33  
80   562  0   
81   131  224 
82   168  886 
83   112  225 
84   577  69  
85   392  541 
86   951  538 
87   717  435 
88   477  773 
89   229  745 
90   769  44  
91   903  385 
92   275  679 
93   534  15  
94   827  455 
95   296  655 
96   98   592 
97   812  475 
98   598  588 
99   745  662 
100  570  30  
101  544  445 
DEMAND_SECTION
1    0   
2    1   
3    1   
4    1   
5    1   
6    1   
7    1   
8    1   
9    1   
10   1   
11   1   
12   1   
13   1   
14   1   
15   1   
16   1   
17   1   
18   1   
19   1   
20   1   
21   1   
22   1   
23   1   
24   1   
25   1   
26   1   
27   1   
28   1   
29   1   
30   1   
31   1   
32   1   
33   1   
34   1   
35   1   
36   1   
37   1   
38   1   
39   1   
40   1   
41   1   
42   1   
43   1   
44   1   
45   1   
46   1   
47   1   
48   1   
49   1   
50   1   
51   1   
52   1   
53   1   
54   1   
55   1   
56   1   
57   1   
58   1   
59   1   
60   1   
61   1   
62   1   
63   1   
64   1   
65   1   
66   1   
67   1   
68   1   
69   1   
70   1   
71   1   
72   1   
73   1   
74   1   
75   1   
76   1   
77   1   
78   1   
79   1   
80   1   
81   1   
82   1   
83   1   
84   1   
85   1   
86   1   
87   1   
88   1   
89   1   
90   1   
91   1   
92   1   
93   1   
94   1   
95   1   
96   1   
97   1   
98   1   
99   1   
100  1   
101  1   
DEPOT_SECTION
1
-1
EOF
