data/CVRPLIB/Vrp-Set-XML100/solutions/XML100_1215_21.sol
Route #1: 44 7 23 17 46 24 85 38 76 41 90 9 32 16 12 70 71 26 86 59 60 58 36
Route #2: 55 95 30 66 43 18 68 80 82 15 74 20 62 29 27 48 65 64 21 2 1 94 91
Route #3: 35 25 100 47 63 89 57 3 61 78 10 52 83 99 79 92 19 73 37 34 84 8 56
Route #4: 88 77 72 69 4 11 53 13 75 81
Route #5: 14 33 45 97 54 51 40 22 5 42 39 93 96 50 31 98 49 6 67 28 87
Cost 9546
